c ---- [ banner ] ------------------------------------------------------------
c
c Kissat SAT Solver
c 
c Copyright (c) 2021-2024 Armin Biere University of Freiburg
c Copyright (c) 2019-2021 Armin Biere Johannes Kepler University Linz
c 
c Version 4.0.1 43f02cf3e992cb44653b35e5cb26f93281552ae0
c gcc (Ubuntu 13.2.0-23ubuntu4) 13.2.0 -W -Wall -O3 -DNDEBUG
c Thu Sep 12 12:27:46 CEST 2024 Linux abryzen9 6.8.0-41-generic x86_64
c
c ---- [ parsing ] -----------------------------------------------------------
c
c opened and reading DIMACS file:
c
c   /data/artifact/AMulet2.0_artifact/exp4/cnf_dc2_64/64_64_U_SP_WT_SE_GenMul_dc2.cnf
c
c parsed 'p cnf 30801 133996' header
c closing input after reading 2678434 bytes (3 MB)
c finished parsing after 0.03 seconds
c
c ---- [ options ] -----------------------------------------------------------
c
c --stable=0                       (different from default '1')
c
c ---- [ solving ] -----------------------------------------------------------
c
c  seconds switched rate     size/glue tier1  binary           remaining
c         MB reductions conflicts size  tier2     irredundant
c          level restarts redundant glue  trail           variables
c
c *  0.03 10 0 0 0  0 0   0   0 0.0 0 0 0 0 0% 12798 121196 30798 100%
c (  0.06 13 0 0 0  0 0   0   0 0.0 0 0 0 0 0% 12798 121196 30798 100%
c .  0.07 13 0 0 0  0 0   0   0 0.0 0 0 0 0 0% 12794 121196 30798 100%
c c  0.17 19 0 0 0  0 0   0   0 0.0 0 0 0 0 0% 19754 107471 27316 89%
c d  0.18 19 0 0 0  0 0   0   0 0.0 0 0 0 0 0% 12790 107471 27316 89%
c =  0.22 19 0 0 0  0 0   0   0 0.0 0 0 0 0 0% 13188 107471 27052 88%
c d  0.23 19 0 0 0  0 0   0   0 0.0 0 0 0 0 0% 12660 107471 27052 88%
c f  0.34 19 0 0 0  0 0   0   0 0.0 0 0 0 0 0% 17638 99648 29833 97%
c e  0.54 26 0 0 0  0 0   0   0 0.0 0 0 0 0 0% 10904 108104 20649 67%
c )  0.54 26 0 0 0  0 0   0   0 0.0 0 0 0 0 0% 10904 108104 20649 67%
c {  0.57 28 0 0 0  0 0   0   0 0.0 0 0 2 6 0% 10904 108104 20649 67%
c -  1.03 27 174 0 1 300 50 1000 708 4.2 25 6 3 9 23% 10990 108085 20649 67%
c -  1.41 27 302 0 2 493 50 2002 1386 4.4 27 6 4 11 25% 11030 108085 20649 67%
c c  1.55 24 313 0 2 525 45 2508 1694 4.2 26 6 4 10 23% 11190 107624 20576 67%
c d  1.56 24 313 0 2 525 45 2508 1677 4.2 26 6 4 10 23% 11044 107624 20576 67%
c u  1.60 24 313 0 2 525 45 2508 1330 4.2 26 6 4 10 23% 11046 107624 20576 67%
c v  1.63 24 313 0 2 525 45 2508 1150 4.2 26 6 4 10 23% 11046 107624 20576 67%
c w  1.67 24 313 0 2 525 45 2508 1144 4.2 26 6 4 10 23% 11046 107624 20576 67%
c x  1.69 25 313 0 2 525 45 2508 1144 4.2 26 6 4 10 23% 11135 107441 20576 67%
c =  1.80 25 313 0 2 525 45 2508 1144 4.2 26 6 4 10 23% 11589 107441 20349 66%
c
c  seconds   switched   rate       size/glue tier1     binary           remaining
c         MB  reductions conflicts       size  tier2       irredundant
c           level restarts    redundant    glue    trail           variables
c
c d  1.81 25 313 0 2 525 45 2508 1134 4.2 26 6 4 10 23% 11133 107441 20348 66%
c t  1.83 25 313 0 2 525 45 2508 1134 4.2 26 6 4 10 23% 11128 107441 20348 66%
c f  1.86 25 313 0 2 525 45 2508 1134 4.2 26 6 4 10 23% 11712 106270 20927 68%
c u  1.97 25 313 0 2 525 45 2508 1086 4.2 26 6 4 10 23% 11717 106270 20927 68%
c v  1.99 25 313 0 2 525 45 2508 1033 4.2 26 6 4 10 23% 11717 106270 20927 68%
c w  2.02 25 313 0 2 525 45 2508 1029 4.2 26 6 4 10 23% 11717 106270 20927 68%
c x  2.05 25 313 0 2 525 45 2508 1029 4.2 26 6 4 10 23% 11719 105629 20927 68%
c =  2.11 25 313 0 2 525 45 2508 1029 4.2 26 6 4 10 23% 12015 105629 20779 67%
c d  2.12 25 313 0 2 525 45 2508 1029 4.2 26 6 4 10 23% 11716 105629 20779 67%
c f  2.14 25 313 0 2 525 45 2508 1029 4.2 26 6 4 10 23% 11750 105578 20796 68%
c -  2.27 25 338 0 3 602 42 3421 1586 4.0 23 6 3 11 24% 11814 105574 20796 68%
c -  2.92 25 308 0 4 928 43 5154 2605 4.4 32 7 3 10 27% 11899 105548 20796 68%
c -  3.49 25 284 0 5 1124 39 7154 3678 4.6 34 7 3 10 27% 11998 105537 20796 68%
c d  3.56 25 295 0 5 1145 37 7714 4163 4.5 33 7 3 10 26% 11955 105537 20767 67%
c u  3.60 25 295 0 5 1145 37 7714 3494 4.5 33 7 3 10 26% 11970 105537 20767 67%
c v  3.64 25 295 0 5 1145 37 7714 3177 4.5 33 7 3 10 26% 11970 105537 20767 67%
c w  3.68 25 295 0 5 1145 37 7714 3173 4.5 33 7 3 10 26% 11970 105537 20767 67%
c x  3.72 25 295 0 5 1145 37 7714 3173 4.5 33 7 3 10 26% 11970 105444 20767 67%
c =  3.87 25 295 0 5 1145 37 7714 3173 4.5 33 7 3 10 26% 13006 105444 20249 66%
c d  3.88 25 295 0 5 1145 37 7714 3169 4.5 33 7 3 10 26% 11844 105444 20248 66%
c
c  seconds   switched    rate       size/glue tier1     binary           remaining
c         MB  reductions  conflicts       size  tier2       irredundant
c           level  restarts    redundant    glue    trail           variables
c
c t  3.89 25 295 0 5 1145 37 7714 3169 4.5 33 7 3 10 26% 11832 105444 20248 66%
c f  3.95 25 295 0 5 1145 37 7714 3169 4.5 33 7 3 10 26% 13202 103371 20936 68%
c u  4.04 25 295 0 5 1145 37 7714 3048 4.5 33 7 3 10 26% 13204 103371 20936 68%
c v  4.07 25 295 0 5 1145 37 7714 2962 4.5 33 7 3 10 26% 13204 103371 20936 68%
c w  4.10 25 295 0 5 1145 37 7714 2956 4.5 33 7 3 10 26% 13204 103371 20936 68%
c =  4.25 25 295 0 5 1145 37 7714 2956 4.5 33 7 3 10 26% 14088 103371 20494 67%
c d  4.26 25 295 0 5 1145 37 7714 2935 4.5 33 7 3 10 26% 13067 103371 20494 67%
c t  4.28 25 295 0 5 1145 37 7714 2935 4.5 33 7 3 10 26% 12996 103371 20494 67%
c f  4.34 25 295 0 5 1145 37 7714 2935 4.5 33 7 3 10 26% 14562 101003 21279 69%
c -  4.66 25 305 0 6 1219 35 9390 3826 4.3 30 7 2 10 27% 14601 101001 21279 69%
c o  4.72 25 319 0 6 1224 33 10146 4514 4.2 28 7 2 10 26% 14614 100999 21279 69%
c -  5.24 25 313 0 7 1393 34 11839 5157 4.3 30 7 2 9 26% 14684 100996 21279 69%
c s  5.31 25 349 0 7 1395 33 12514 5672 4.3 29 7 2 9 25% 14757 94084 21279 69%
c e  5.42 25 349 0 7 1395 33 12514 5672 4.3 29 7 2 9 25% 13817 94826 20679 67%
c s  5.42 25 349 0 7 1395 33 12514 5672 4.3 29 7 2 9 25% 13823 94306 20679 67%
c ^  5.44 25 349 0 7 1395 33 12514 5672 4.3 29 7 2 9 25% 13823 94306 20679 67%
c -  6.11 25 346 0 8 1602 34 14484 6216 4.5 31 7 2 9 26% 13871 94306 20679 67%
c d  6.38 25 358 0 8 1713 33 15795 7316 4.4 30 7 2 9 26% 13564 94305 20453 66%
c u  6.42 25 358 0 8 1713 33 15795 6458 4.4 30 7 2 9 26% 13597 94305 20453 66%
c v  6.48 25 358 0 8 1713 33 15795 5594 4.4 30 7 2 9 26% 13597 94305 20453 66%
c
c  seconds   switched    rate        size/glue tier1    binary          remaining
c         MB  reductions   conflicts       size  tier2      irredundant
c           level  restarts     redundant    glue   trail          variables
c
c w  6.53 25 358 0 8 1713 33 15795 5594 4.4 30 7 2 9 26% 13597 94305 20453 66%
c x  6.57 25 358 0 8 1713 33 15795 5594 4.4 30 7 2 9 26% 13638 93982 20453 66%
c =  6.74 25 358 0 8 1713 33 15795 5594 4.4 30 7 2 9 26% 14168 93982 20188 66%
c d  6.76 25 358 0 8 1713 33 15795 5561 4.4 30 7 2 9 26% 13491 93982 20182 66%
c t  6.78 25 358 0 8 1713 33 15795 5561 4.4 30 7 2 9 26% 13443 93982 20182 66%
c f  6.83 25 358 0 8 1713 33 15795 5561 4.4 30 7 2 9 26% 13521 93817 20224 66%
c u  6.89 25 358 0 8 1713 33 15795 5409 4.4 30 7 2 9 26% 13523 93817 20224 66%
c v  6.92 25 358 0 8 1713 33 15795 5291 4.4 30 7 2 9 26% 13523 93817 20224 66%
c w  6.99 25 358 0 8 1713 33 15795 5273 4.4 30 7 2 9 26% 13523 93817 20224 66%
c x  7.03 25 358 0 8 1713 33 15795 5273 4.4 30 7 2 9 26% 13563 92487 20224 66%
c =  7.22 25 358 0 8 1713 33 15795 5273 4.4 30 7 2 9 26% 14689 92487 19661 64%
c d  7.23 25 358 0 8 1713 33 15795 5251 4.4 30 7 2 9 26% 13177 92487 19661 64%
c t  7.25 25 358 0 8 1713 33 15795 5251 4.4 30 7 2 9 26% 13164 92487 19661 64%
c f  7.28 25 358 0 8 1713 33 15795 5251 4.4 30 7 2 9 26% 13164 92468 19666 64%
c -  7.61 26 347 0 9 1815 33 17312 5760 4.3 29 7 2 9 26% 13214 92468 19666 64%
c o  8.12 28 339 0 9 1999 32 20192 8219 4.2 28 7 2 9 26% 13321 92452 19666 64%
c -  8.21 28 337 0 10 2031 32 20312 7413 4.3 29 7 2 9 26% 13322 92452 19666 64%
c -  9.16 28 329 0 11 2412 33 23474 8981 4.4 31 7 2 9 26% 13397 92452 19666 64%
c s  9.60 28 333 0 11 2585 33 25017 10282 4.4 32 7 2 9 26% 13451 90206 19666 64%
c e  9.72 28 333 0 11 2585 33 25017 10282 4.4 32 7 2 9 26% 10902 93831 18188 59%
c
c  seconds   switched     rate         size/glue tier1    binary          remaining
c         MB   reductions   conflicts        size  tier2      irredundant
c           level   restarts      redundant    glue   trail          variables
c
c s  9.72 28 333 0 11 2585 33 25017 10282 4.4 32 7 2 9 26% 10932 93479 18188 59%
c e  9.73 28 333 0 11 2585 33 25017 10282 4.4 32 7 2 9 26% 10920 93496 18182 59%
c ^  9.73 28 333 0 11 2585 33 25017 10282 4.4 32 7 2 9 26% 10920 93496 18182 59%
c - 10.09 28 330 0 12 2749 33 26790 9332 4.4 31 7 2 8 26% 10955 93496 18182 59%
c c 10.21 28 328 0 12 2768 33 26922 9455 4.4 31 7 2 8 26% 10990 93323 18158 59%
c d 10.22 28 328 0 12 2768 33 26922 9432 4.4 31 7 2 8 26% 10524 93323 17909 58%
c u 10.28 28 328 0 12 2768 33 26922 8202 4.4 31 7 2 8 26% 10547 93323 17909 58%
c v 10.33 28 328 0 12 2768 33 26922 7281 4.4 31 7 2 8 26% 10548 93323 17909 58%
c w 10.34 28 328 0 12 2768 33 26922 7274 4.4 31 7 2 8 26% 10548 93323 17909 58%
c x 10.44 28 328 0 12 2768 33 26922 7269 4.4 31 7 2 8 26% 10655 92212 17909 58%
c = 10.72 28 328 0 12 2768 33 26922 7269 4.4 31 7 2 8 26% 14479 92212 15997 52%
c d 10.73 28 328 0 12 2768 33 26922 7013 4.4 31 7 2 8 26% 10521 92212 15997 52%
c t 10.75 28 328 0 12 2768 33 26922 7013 4.4 31 7 2 8 26% 10456 92212 15997 52%
c f 10.82 28 328 0 12 2768 33 26922 7013 4.4 31 7 2 8 26% 10447 92134 16013 52%
c u 10.88 28 328 0 12 2768 33 26922 6545 4.4 31 7 2 8 26% 10448 92134 16013 52%
c v 10.92 28 328 0 12 2768 33 26922 6433 4.4 31 7 2 8 26% 10448 92134 16013 52%
c w 10.93 28 328 0 12 2768 33 26922 6428 4.4 31 7 2 8 26% 10448 92134 16013 52%
c x 11.05 28 328 0 12 2768 33 26922 6428 4.4 31 7 2 8 26% 10455 84215 16013 52%
c = 11.32 28 328 0 12 2768 33 26922 6428 4.4 31 7 2 8 26% 13131 84209 14675 48%
c d 11.33 28 328 0 12 2768 33 26922 6364 4.4 31 7 2 8 26% 10430 84209 14675 48%
c
c  seconds   switched     rate        size/glue tier1    binary          remaining
c         MB   reductions   conflicts       size  tier2      irredundant
c           level   restarts     redundant    glue   trail          variables
c
c t 11.35 28 328 0 12 2768 33 26922 6364 4.4 31 7 2 8 26% 10288 84209 14675 48%
c f 11.39 28 328 0 12 2768 33 26922 6364 4.4 31 7 2 8 26% 10307 84115 14697 48%
c - 11.91 27 314 0 13 2962 31 30255 8382 4.2 29 7 2 8 26% 10346 84110 14697 48%
c - 12.39 27 303 0 14 3293 31 33861 10321 4.1 29 7 2 8 26% 10399 84110 14697 48%
c - 12.97 27 294 0 15 3591 30 37603 11980 4.0 28 7 2 8 26% 10463 84109 14697 48%
c o 13.66 27 283 0 15 3887 30 40197 14225 4.0 28 7 2 8 26% 10513 84109 14697 48%
c c 13.95 27 281 0 15 3998 30 41250 15200 4.0 28 7 2 8 26% 10583 83651 14616 47%
c d 13.96 27 281 0 15 3998 30 41250 14862 4.0 28 7 2 8 26% 10421 83651 14616 47%
c u 14.03 27 281 0 15 3998 30 41250 12453 4.0 28 7 2 8 26% 10425 83651 14616 47%
c v 14.11 27 281 0 15 3998 30 41250 11383 4.0 28 7 2 8 26% 10429 83651 14616 47%
c w 14.16 27 281 0 15 3998 30 41250 11383 4.0 28 7 2 8 26% 10429 83651 14616 47%
c x 14.24 27 281 0 15 3998 30 41250 11382 4.0 28 7 2 8 26% 10435 75208 14616 47%
c d 14.50 27 281 0 15 3998 30 41250 11375 4.0 28 7 2 8 26% 10421 75208 14609 47%
c t 14.52 27 281 0 15 3998 30 41250 11375 4.0 28 7 2 8 26% 10408 75208 14609 47%
c c 14.59 27 281 0 15 3998 30 41250 11368 4.0 28 7 2 8 26% 10416 75168 14604 47%
c d 14.60 27 281 0 15 3998 30 41250 11368 4.0 28 7 2 8 26% 10406 75168 14604 47%
c u 14.65 27 281 0 15 3998 30 41250 10960 4.0 28 7 2 8 26% 10410 75168 14604 47%
c v 14.71 27 281 0 15 3998 30 41250 10416 4.0 28 7 2 8 26% 10412 75168 14604 47%
c w 14.83 27 281 0 15 3998 30 41250 10412 4.0 28 7 2 8 26% 10412 75168 14604 47%
c x 14.90 27 281 0 15 3998 30 41250 10412 4.0 28 7 2 8 26% 10425 72462 14604 47%
c
c  seconds   switched     rate         size/glue tier1    binary          remaining
c         MB   reductions   conflicts        size  tier2      irredundant
c           level   restarts      redundant    glue   trail          variables
c
c d 14.91 27 281 0 15 3998 30 41250 10411 4.0 28 7 2 8 26% 10423 72462 14603 47%
c t 14.93 27 281 0 15 3998 30 41250 10411 4.0 28 7 2 8 26% 10412 72462 14603 47%
c - 14.96 27 281 0 16 3998 30 41477 9326 4.0 28 7 2 7 26% 10418 72462 14603 47%
c - 15.72 27 272 0 17 4414 30 45477 11331 3.9 28 7 2 7 26% 10467 72460 14603 47%
c - 16.45 27 264 0 18 4798 30 49600 13315 3.9 28 7 2 7 26% 10550 72459 14603 47%
c s 16.84 27 261 0 18 4972 29 52118 15567 3.9 28 7 2 7 26% 10576 70401 14603 47%
c e 16.93 27 261 0 18 4972 29 52118 15567 3.9 28 7 2 7 26% 9654 71672 14165 46%
c 2 16.93 27 261 0 18 4972 29 52118 15567 3.9 28 7 2 7 26% 9651 71672 14165 46%
c s 16.94 27 261 0 18 4972 29 52118 15567 3.9 28 7 2 7 26% 9667 71398 14165 46%
c e 16.94 27 261 0 18 4972 29 52118 15567 3.9 28 7 2 7 26% 9653 71421 14159 46%
c ^ 16.94 27 261 0 18 4972 29 52118 15567 3.9 28 7 2 7 26% 9653 71421 14159 46%
c - 17.18 27 256 0 19 5088 29 53843 13933 3.8 27 7 2 6 26% 9682 71421 14159 46%
c - 17.70 27 250 0 20 5415 28 58201 15773 3.8 27 7 2 6 25% 9748 71420 14159 46%
c d 17.79 27 249 0 20 5487 28 58897 16265 3.8 27 7 2 6 25% 9690 71420 14123 46%
c u 17.84 27 249 0 20 5487 28 58897 13728 3.8 27 7 2 6 25% 9729 71420 14123 46%
c v 17.89 27 249 0 20 5487 28 58897 12552 3.8 27 7 2 6 25% 9734 71420 14123 46%
c w 17.91 27 249 0 20 5487 28 58897 12548 3.8 27 7 2 6 25% 9734 71420 14123 46%
c x 17.97 27 249 0 20 5487 28 58897 12545 3.8 27 7 2 6 25% 9759 70397 14123 46%
c = 18.15 27 249 0 20 5487 28 58897 12545 3.8 27 7 2 6 25% 9897 70397 14054 46%
c d 18.16 27 249 0 20 5487 28 58897 12394 3.8 27 7 2 6 25% 9719 70397 14045 46%
c
c  seconds   switched     rate         size/glue tier1    binary         remaining
c         MB   reductions   conflicts        size  tier2     irredundant
c           level   restarts      redundant    glue   trail         variables
c
c t 18.17 27 249 0 20 5487 28 58897 12394 3.8 27 7 2 6 25% 9691 70397 14045 46%
c f 18.19 27 249 0 20 5487 28 58897 12394 3.8 27 7 2 6 25% 9699 70336 14054 46%
c c 18.23 27 249 0 20 5487 28 58897 12345 3.8 27 7 2 6 25% 9745 70189 14032 46%
c d 18.23 27 249 0 20 5487 28 58897 12345 3.8 27 7 2 6 25% 9701 70189 14032 46%
c u 18.27 27 249 0 20 5487 28 58897 11789 3.8 27 7 2 6 25% 9704 70189 14032 46%
c v 18.30 27 249 0 20 5487 28 58897 11454 3.8 27 7 2 6 25% 9705 70189 14032 46%
c w 18.33 27 249 0 20 5487 28 58897 11428 3.8 27 7 2 6 25% 9705 70189 14032 46%
c x 18.40 27 249 0 20 5487 28 58897 11426 3.8 27 7 2 6 25% 9725 70003 14032 46%
c = 18.60 27 249 0 20 5487 28 58897 11426 3.8 27 7 2 6 25% 10007 70003 13891 45%
c d 18.61 27 249 0 20 5487 28 58897 11248 3.8 27 7 2 6 25% 9692 70003 13889 45%
c t 18.62 27 249 0 20 5487 28 58897 11248 3.8 27 7 2 6 25% 9679 70003 13889 45%
c f 18.63 27 249 0 20 5487 28 58897 11248 3.8 27 7 2 6 25% 9684 69969 13894 45%
c - 19.27 27 243 0 21 5980 28 62673 13088 3.8 27 7 2 6 26% 9720 69969 13894 45%
c - 19.80 27 236 0 22 6362 27 67255 13654 3.7 27 7 1 6 25% 9790 69966 13894 45%
c o 20.02 27 232 0 22 6505 27 70386 16385 3.7 27 7 1 6 25% 9845 69964 13894 45%
c - 20.36 27 230 0 23 6775 27 71945 14745 3.7 27 7 1 6 25% 9859 69964 13894 45%
c - 21.12 27 224 0 24 7327 27 76740 15847 3.7 27 7 1 6 25% 9971 69964 13894 45%
c c 21.72 27 222 0 24 7683 27 79985 18721 3.7 28 7 1 6 26% 10136 68950 13709 45%
c d 21.72 27 222 0 24 7683 27 79985 18180 3.7 28 7 1 6 26% 9766 68950 13709 45%
c u 21.75 27 222 0 24 7683 27 79985 16123 3.7 28 7 1 6 26% 9778 68950 13709 45%
c
c  seconds   switched     rate         size/glue tier1    binary         remaining
c         MB   reductions   conflicts        size  tier2     irredundant
c           level   restarts      redundant    glue   trail         variables
c
c v 21.85 27 222 0 24 7683 27 79985 13435 3.7 28 7 1 6 26% 9791 68950 13709 45%
c w 22.01 27 222 0 24 7683 27 79985 13388 3.7 28 7 1 6 26% 9791 68950 13709 45%
c = 22.08 27 222 0 24 7683 27 79985 13388 3.7 28 7 1 6 26% 9917 68950 13646 44%
c d 22.09 27 222 0 24 7683 27 79985 13320 3.7 28 7 1 6 26% 9736 68950 13631 44%
c t 22.10 27 222 0 24 7683 27 79985 13320 3.7 28 7 1 6 26% 9713 68950 13631 44%
c f 22.11 27 222 0 24 7683 27 79985 13320 3.7 28 7 1 6 26% 9719 68918 13635 44%
c c 22.14 27 222 0 24 7683 27 79985 13308 3.7 28 7 1 6 26% 9741 68828 13624 44%
c d 22.15 27 222 0 24 7683 27 79985 13308 3.7 28 7 1 6 26% 9719 68828 13624 44%
c u 22.18 27 222 0 24 7683 27 79985 12790 3.7 28 7 1 6 26% 9725 68828 13624 44%
c v 22.21 27 222 0 24 7683 27 79985 12249 3.7 28 7 1 6 26% 9728 68828 13624 44%
c w 22.33 27 222 0 24 7683 27 79985 12124 3.7 28 7 1 6 26% 9728 68828 13624 44%
c x 22.41 27 222 0 24 7683 27 79985 12120 3.7 28 7 1 6 26% 9742 67128 13624 44%
c = 22.78 27 222 0 24 7683 27 79985 12120 3.7 28 7 1 6 26% 10488 67081 13247 43%
c d 22.79 27 222 0 24 7683 27 79985 11901 3.7 28 7 1 6 26% 9683 67081 13247 43%
c t 22.80 27 222 0 24 7683 27 79985 11901 3.7 28 7 1 6 26% 9608 67081 13247 43%
c f 22.81 27 222 0 24 7683 27 79985 11901 3.7 28 7 1 6 26% 9646 66912 13268 43%
c - 23.02 27 224 0 25 7841 27 81639 11316 3.7 28 7 1 6 26% 9655 66906 13268 43%
c - 23.74 27 221 0 26 8483 27 86639 13741 3.7 28 8 1 6 26% 9696 66899 13268 43%
c i 23.81 27 221 0 26 8521 27 87550 14524 3.7 28 8 1 6 26% 9726 66898 13267 43%
c i 23.81 27 220 0 26 8523 27 87593 14555 3.7 28 8 1 6 26% 9728 66898 13262 43%
c
c  seconds   switched     rate         size/glue tier1    binary         remaining
c         MB   reductions   conflicts        size  tier2     irredundant
c           level   restarts      redundant    glue   trail         variables
c
c i 23.92 27 220 0 26 8613 27 88251 15146 3.7 28 8 1 6 26% 9737 66898 13261 43%
c i 23.99 27 219 0 26 8680 27 88673 15505 3.7 28 8 1 6 26% 9750 66897 13260 43%
c i 24.01 27 219 0 26 8692 27 89389 16091 3.7 28 8 1 6 26% 9761 66897 13256 43%
c i 24.03 27 219 0 26 8705 27 89556 16232 3.7 28 8 1 6 26% 9769 66897 13255 43%
c i 24.03 27 219 0 26 8705 27 89559 16232 3.7 28 8 1 6 26% 9771 66897 13254 43%
c i 24.22 27 217 0 26 8875 27 90818 17422 3.7 28 8 1 6 26% 9779 66897 13253 43%
c - 24.34 27 215 0 27 8974 26 91739 15327 3.6 28 8 1 6 26% 9818 66779 13253 43%
c i 24.47 27 214 0 27 9055 26 92827 16334 3.6 28 8 1 6 26% 9820 66777 13252 43%
c i 24.69 27 213 0 27 9226 26 94475 17823 3.6 28 8 1 6 26% 9831 66777 13251 43%
c i 24.76 27 211 0 27 9301 26 95528 18637 3.6 27 8 1 6 26% 9866 66777 13243 43%
c s 24.77 27 210 0 27 9301 26 95834 18910 3.6 27 8 1 6 26% 9861 65041 13243 43%
c e 24.85 27 210 0 27 9301 26 95834 18910 3.6 27 8 1 6 26% 6380 73012 11504 37%
c 2 24.85 27 210 0 27 9301 26 95834 18910 3.6 27 8 1 6 26% 6364 73012 11504 37%
c s 24.86 27 210 0 27 9301 26 95834 18910 3.6 27 8 1 6 26% 6380 72335 11504 37%
c e 24.87 27 210 0 27 9301 26 95834 18910 3.6 27 8 1 6 26% 6334 72479 11458 37%
c ^ 24.87 27 210 0 27 9301 26 95834 18910 3.6 27 8 1 6 26% 6334 72479 11458 37%
c - 25.02 27 208 0 28 9452 26 96936 12230 3.6 27 8 1 6 26% 6340 72479 11458 37%
c i 25.08 27 208 0 28 9516 26 97229 12499 3.6 27 8 1 6 26% 6343 72479 11457 37%
c i 25.10 27 207 0 28 9544 26 97531 12773 3.6 27 8 1 6 26% 6349 72479 11456 37%
c i 25.19 27 207 0 28 9620 26 98097 13316 3.6 27 8 1 6 26% 6349 72479 11455 37%
c
c  seconds   switched     rate         size/glue tier1    binary         remaining
c         MB   reductions   conflicts        size  tier2     irredundant
c           level   restarts      redundant    glue   trail         variables
c
c i 25.43 27 205 0 28 9859 26 99500 14643 3.5 27 8 1 6 26% 6351 72479 11454 37%
c i 25.52 27 204 0 28 9921 26 100269 15369 3.5 27 8 1 6 26% 6356 72479 11453 37%
c i 25.56 27 203 0 28 9957 25 100773 15801 3.5 27 8 1 6 26% 6362 72478 11452 37%
c i 25.68 27 200 0 28 10056 25 102082 16995 3.5 27 8 1 6 26% 6373 72477 11451 37%
c - 25.69 27 200 0 29 10056 25 102229 14132 3.5 27 8 1 6 26% 6359 72476 11451 37%
c i 25.78 27 197 0 29 10114 25 104062 15728 3.4 26 8 1 6 26% 6393 72474 11450 37%
c d 25.80 27 196 0 29 10114 25 104646 16237 3.4 26 8 1 6 26% 6392 72383 11439 37%
c d 25.80 27 196 0 29 10114 25 104646 16222 3.4 26 8 1 6 26% 6373 72383 11430 37%
c u 25.82 27 196 0 29 10114 25 104646 14932 3.4 26 8 1 6 26% 6394 72383 11429 37%
c v 25.89 27 196 0 29 10114 25 104646 12426 3.4 26 8 1 6 26% 6408 72383 11429 37%
c w 25.94 27 196 0 29 10114 25 104646 12227 3.4 26 8 1 6 26% 6408 72383 11429 37%
c x 26.04 27 196 0 29 10114 25 104646 12201 3.4 26 8 1 6 26% 6465 70867 11429 37%
c = 26.43 27 196 0 29 10114 25 104646 12201 3.4 26 8 1 6 26% 6681 70691 11300 37%
c d 26.43 27 196 0 29 10114 25 104646 11942 3.4 26 8 1 6 26% 6423 70691 11300 37%
c t 26.44 27 196 0 29 10114 25 104646 11942 3.4 26 8 1 6 26% 6282 70691 11300 37%
c f 26.49 27 196 0 29 10114 25 104646 11942 3.4 26 8 1 6 26% 6290 70656 11303 37%
c u 26.54 27 196 0 29 10114 25 104646 11603 3.4 26 8 1 6 26% 6293 70656 11303 37%
c v 26.58 27 196 0 29 10114 25 104646 11151 3.4 26 8 1 6 26% 6294 70656 11303 37%
c w 26.60 27 196 0 29 10114 25 104646 11083 3.4 26 8 1 6 26% 6295 70656 11303 37%
c x 26.72 27 196 0 29 10114 25 104646 11081 3.4 26 8 1 6 26% 6314 69871 11300 37%
c
c  seconds   switched      rate          size/glue tier1    binary         remaining
c         MB   reductions    conflicts         size  tier2     irredundant
c           level   restarts        redundant    glue   trail         variables
c
c t 27.09 27 196 0 29 10114 25 104646 11072 3.4 26 8 1 6 26% 6311 69859 11299 37%
c i 27.10 27 196 0 29 10114 25 104646 11072 3.4 26 8 1 6 26% 6311 69859 11299 37%
c } 27.11 27 196 0 29 10124 25 104714 11134 3.4 26 8 1 6 26% 6313 69858 11291 37%
c 0 27.11 27 196 0 29 10124 25 104714 11134 3.4 26 8 1 6 26% 6313 69858 11291 37%
c
c ---- [ result ] ------------------------------------------------------------
c
s UNSATISFIABLE
c
c ---- [ profiling ] ---------------------------------------------------------
c
c          18.01   66.44 %  search
c          18.01   66.44 %  focused
c           8.53   31.46 %  simplify
c           8.25   30.42 %  probe
c           3.27   12.05 %  sweep
c           3.08   11.36 %  vivify
c           0.63    2.33 %  factor
c           0.61    2.23 %  congruence
c           0.56    2.05 %  eliminate
c           0.48    1.77 %  preprocess
c           0.48    1.75 %  substitute
c           0.19    0.72 %  fastel
c           0.16    0.58 %  reduce
c           0.12    0.46 %  transitive
c           0.10    0.36 %  subsume
c           0.06    0.23 %  backbone
c           0.06    0.21 %  lucky
c           0.03    0.12 %  parse
c =============================================
c          27.11  100.00 %  total
c
c ---- [ statistics ] --------------------------------------------------------
c
c chronological:                         4867                5 %  conflicts
c conflicts:                           104714             3862.18 per second
c congruent:                             3883               13 %  variables
c decisions:                          2568721               24.53 per conflict
c eliminated:                           13497               44 %  variables
c factored:                              4977               16 %  variables
c fast_eliminated:                       9184               68 %  eliminated
c fast_strengthened:                       10                1 %  per strengthened
c fast_subsumed:                           56                0 %  per subsumed
c iterations:                              20                0 %  variables
c propagations:                     106626288          3932710    per second
c reductions:                              29             3611    interval
c reordered:                                4            26178    interval
c restarts:                             10124               10    interval
c strengthened:                          1336                0 %  checks
c substituted:                          10916               35 %  variables
c subsumed:                             14707                1 %  checks
c switched:                                 0                0    interval
c vivified:                             64343               11 %  checks
c
c ---- [ glue usage ] --------------------------------------------------------
c
c focused glue 1   used 125404 clauses 54.46% accumulated 54.46% tier1
c focused glue 2   used  50781 clauses 22.05% accumulated 76.51%
c focused glue 3-4 used  24203 clauses 10.51% accumulated 87.02%
c focused glue 5   used   6057 clauses  2.63% accumulated 89.65%
c focused glue 6   used   4567 clauses  1.98% accumulated 91.63% tier2
c
c ---- [ resources ] ---------------------------------------------------------
c
c maximum-resident-set-size:         28876800 bytes         28 MB
c process-time:                            27s              27.11 seconds
c
c ---- [ shutting down ] -----------------------------------------------------
c
c exit 20
